177176 -1 461402 10964738 177176 0.98
176982 -1 474188 11266401 176982 0.99
175558 -1 343486 8153390 175558 0.97
178624 -1 383869 9144172 178624 0.99
176812 -1 432557 10304788 176812 0.99
178914 -1 405693 9674984 178914 0.97
178850 -1 453494 10711750 178850 1
179416 -1 469031 11140315 179416 1
179868 -1 449310 10627370 179868 1
177576 -1 430463 10192285 177576 0.98
